<number of tasks>
28

<cycle time>
256

<task times>
1 70
2 59
3 33
4 6
5 1
6 27
7 17
8 62
9 31
10 53
11 21
12 19
13 108
14 52
15 5
16 8
17 97
18 8
19 47
20 67
21 17
22 8
23 3
24 21
25 107
26 3
27 2
28 72

<precedence relations>
1,2
1,3
1,4
1,5
1,8
1,19
1,21
1,22
1,23
1,24
1,26
2,6
2,17
3,28
4,28
5,28
6,7
7,18
8,9
9,10
10,11
10,12
11,15
12,13
13,14
13,16
14,28
15,28
16,28
17,28
18,28
19,20
20,28
21,28
22,28
23,28
24,25
25,28
26,27
27,28

<setup times forward>
1,3:11
1,4:11
1,5:4
1,19:4
1,21:4
1,23:4
2,3:11
2,4:11
2,5:4
2,6:11
2,10:11
2,11:11
2,12:11
2,13:4
2,14:4
2,15:4
2,16:4
2,17:11
2,19:4
2,20:4
2,21:4
2,23:4
2,25:4
3,2:11
3,5:7
3,7:15
3,8:11
3,9:11
3,13:15
3,14:7
3,15:7
3,16:7
3,18:7
3,19:15
3,20:15
3,21:15
3,22:11
3,23:7
3,24:11
3,25:7
3,26:11
3,27:11
3,28:7
4,2:11
4,5:7
4,7:15
4,8:11
4,9:11
4,13:15
4,14:7
4,15:7
4,16:7
4,18:7
4,19:15
4,20:15
4,21:15
4,22:11
4,23:7
4,24:11
4,25:7
4,26:11
4,27:11
4,28:7
5,2:4
5,3:7
5,4:7
5,6:7
5,7:8
5,8:4
5,9:4
5,10:7
5,11:7
5,12:7
5,13:8
5,17:7
5,19:8
5,20:8
5,21:8
5,22:4
5,24:4
5,26:4
5,27:4
6,5:7
6,7:15
6,8:11
6,9:11
6,13:15
6,14:7
6,15:7
6,16:7
6,19:15
6,20:15
6,21:15
6,22:11
6,23:7
6,24:11
6,25:7
6,26:11
6,27:11
7,3:15
7,4:15
7,5:8
7,8:4
7,9:4
7,10:15
7,11:15
7,12:15
7,14:8
7,15:8
7,16:8
7,17:15
7,18:8
7,22:4
7,23:8
7,24:4
7,25:8
7,26:4
7,27:4
8,3:11
8,4:11
8,5:4
8,6:11
8,7:4
8,17:11
8,18:4
8,19:4
8,20:4
8,21:4
8,23:4
8,25:4
9,3:11
9,4:11
9,5:4
9,6:11
9,7:4
9,10:11
9,17:11
9,18:4
9,19:4
9,20:4
9,21:4
9,23:4
9,25:4
10,2:11
10,5:7
10,7:15
10,18:7
10,19:15
10,20:15
10,21:15
10,22:11
10,23:7
10,24:11
10,25:7
10,26:11
10,27:11
11,2:11
11,5:7
11,7:15
11,13:15
11,14:7
11,15:7
11,16:7
11,18:7
11,19:15
11,20:15
11,21:15
11,22:11
11,23:7
11,24:11
11,25:7
11,26:11
11,27:11
12,2:11
12,5:7
12,7:15
12,13:15
12,15:7
12,18:7
12,19:15
12,20:15
12,21:15
12,22:11
12,23:7
12,24:11
12,25:7
12,26:11
12,27:11
13,2:4
13,3:15
13,4:15
13,5:8
13,6:15
13,11:15
13,14:8
13,15:8
13,16:8
13,17:15
13,18:8
13,22:4
13,23:8
13,24:4
13,25:8
13,26:4
13,27:4
14,2:4
14,3:7
14,4:7
14,6:7
14,7:8
14,11:7
14,17:7
14,19:8
14,20:8
14,21:8
14,22:4
14,24:4
14,26:4
14,27:4
15,2:4
15,3:7
15,4:7
15,6:7
15,7:8
15,12:7
15,13:8
15,17:7
15,19:8
15,20:8
15,21:8
15,22:4
15,24:4
15,26:4
15,27:4
16,2:4
16,3:7
16,4:7
16,6:7
16,7:8
16,11:7
16,17:7
16,19:8
16,20:8
16,21:8
16,22:4
16,24:4
16,26:4
16,27:4
17,5:7
17,7:15
17,8:11
17,9:11
17,13:15
17,14:7
17,15:7
17,16:7
17,18:7
17,19:15
17,20:15
17,21:15
17,22:11
17,23:7
17,24:11
17,25:7
17,26:11
17,27:11
17,28:7
18,3:7
18,4:7
18,8:4
18,9:4
18,10:7
18,11:7
18,12:7
18,13:8
18,17:7
18,19:8
18,20:8
18,21:8
18,22:4
18,24:4
18,26:4
18,27:4
19,2:4
19,3:15
19,4:15
19,5:8
19,6:15
19,8:4
19,9:4
19,10:15
19,11:15
19,12:15
19,14:8
19,15:8
19,16:8
19,17:15
19,18:8
19,22:4
19,23:8
19,24:4
19,25:8
19,26:4
19,27:4
20,2:4
20,3:15
20,4:15
20,5:8
20,6:15
20,8:4
20,9:4
20,10:15
20,11:15
20,12:15
20,14:8
20,15:8
20,16:8
20,17:15
20,18:8
20,22:4
20,23:8
20,24:4
20,25:8
20,26:4
20,27:4
20,28:8
21,2:4
21,3:15
21,4:15
21,5:8
21,6:15
21,8:4
21,9:4
21,10:15
21,11:15
21,12:15
21,14:8
21,15:8
21,16:8
21,17:15
21,18:8
21,22:4
21,23:8
21,24:4
21,25:8
21,26:4
21,27:4
21,28:8
22,3:11
22,4:11
22,5:4
22,6:11
22,7:4
22,10:11
22,11:11
22,12:11
22,13:4
22,14:4
22,15:4
22,16:4
22,17:11
22,18:4
22,19:4
22,20:4
22,21:4
22,23:4
22,25:4
22,28:4
23,2:4
23,3:7
23,4:7
23,6:7
23,7:8
23,8:4
23,9:4
23,10:7
23,11:7
23,12:7
23,13:8
23,17:7
23,19:8
23,20:8
23,21:8
23,22:4
23,24:4
23,26:4
23,27:4
24,3:11
24,4:11
24,5:4
24,6:11
24,7:4
24,10:11
24,11:11
24,12:11
24,13:4
24,14:4
24,15:4
24,16:4
24,17:11
24,18:4
24,19:4
24,20:4
24,21:4
24,23:4
24,25:4
25,2:4
25,3:7
25,4:7
25,6:7
25,7:8
25,8:4
25,9:4
25,10:7
25,11:7
25,12:7
25,13:8
25,17:7
25,19:8
25,20:8
25,21:8
25,22:4
25,26:4
25,27:4
26,3:11
26,4:11
26,5:4
26,6:11
26,7:4
26,10:11
26,11:11
26,12:11
26,13:4
26,14:4
26,15:4
26,16:4
26,17:11
26,18:4
26,19:4
26,20:4
26,21:4
26,23:4
26,25:4
27,3:11
27,4:11
27,5:4
27,6:11
27,7:4
27,10:11
27,11:11
27,12:11
27,13:4
27,14:4
27,15:4
27,16:4
27,17:11
27,18:4
27,19:4
27,20:4
27,21:4
27,23:4
27,25:4
27,28:4

<setup times backward>
2,13:4
2,19:4
2,20:4
2,21:4
3,1:11
3,2:11
3,5:7
3,7:15
3,8:11
3,9:11
3,13:15
3,14:7
3,15:7
3,16:7
3,18:7
3,19:15
3,20:15
3,21:15
3,22:11
3,23:7
3,24:11
3,25:7
3,26:11
3,27:11
4,1:11
4,2:11
4,5:7
4,7:15
4,8:11
4,9:11
4,13:15
4,14:7
4,15:7
4,16:7
4,18:7
4,19:15
4,20:15
4,21:15
4,22:11
4,23:7
4,24:11
4,25:7
4,26:11
4,27:11
5,1:4
5,2:4
5,7:8
5,8:4
5,9:4
5,13:8
5,19:8
5,20:8
5,21:8
5,22:4
5,24:4
5,26:4
5,27:4
6,1:11
6,2:11
6,5:7
6,8:11
6,9:11
6,13:15
6,14:7
6,15:7
6,16:7
6,19:15
6,20:15
6,21:15
6,22:11
6,23:7
6,24:11
6,25:7
6,26:11
6,27:11
8,7:4
8,19:4
8,20:4
8,21:4
9,7:4
9,19:4
9,20:4
9,21:4
10,1:11
10,2:11
10,5:7
10,7:15
10,8:11
10,9:11
10,18:7
10,19:15
10,20:15
10,21:15
10,22:11
10,23:7
10,24:11
10,25:7
10,26:11
10,27:11
11,1:11
11,2:11
11,5:7
11,7:15
11,8:11
11,9:11
11,13:15
11,14:7
11,16:7
11,18:7
11,19:15
11,20:15
11,21:15
11,22:11
11,23:7
11,24:11
11,25:7
11,26:11
11,27:11
12,1:11
12,2:11
12,5:7
12,7:15
12,8:11
12,9:11
12,15:7
12,18:7
12,19:15
12,20:15
12,21:15
12,22:11
12,23:7
12,24:11
12,25:7
12,26:11
12,27:11
14,1:4
14,2:4
14,7:8
14,8:4
14,9:4
14,13:8
14,19:8
14,20:8
14,21:8
14,22:4
14,24:4
14,26:4
14,27:4
15,1:4
15,2:4
15,7:8
15,8:4
15,9:4
15,13:8
15,19:8
15,20:8
15,21:8
15,22:4
15,24:4
15,26:4
15,27:4
16,1:4
16,2:4
16,7:8
16,8:4
16,9:4
16,13:8
16,19:8
16,20:8
16,21:8
16,22:4
16,24:4
16,26:4
16,27:4
17,1:11
17,2:11
17,5:7
17,7:15
17,8:11
17,9:11
17,13:15
17,14:7
17,15:7
17,16:7
17,18:7
17,19:15
17,20:15
17,21:15
17,22:11
17,23:7
17,24:11
17,25:7
17,26:11
17,27:11
18,1:4
18,2:4
18,7:8
18,8:4
18,9:4
18,13:8
18,19:8
18,20:8
18,21:8
18,22:4
18,24:4
18,26:4
18,27:4
22,7:4
22,13:4
22,19:4
22,20:4
22,21:4
23,1:4
23,2:4
23,7:8
23,8:4
23,9:4
23,13:8
23,19:8
23,20:8
23,21:8
23,22:4
23,24:4
23,26:4
23,27:4
24,7:4
24,13:4
24,19:4
24,20:4
24,21:4
25,1:4
25,2:4
25,7:8
25,8:4
25,9:4
25,13:8
25,19:8
25,20:8
25,21:8
25,22:4
25,24:4
25,26:4
25,27:4
26,7:4
26,13:4
26,19:4
26,20:4
26,21:4
27,7:4
27,13:4
27,19:4
27,20:4
27,21:4
28,1:4
28,2:4
28,7:8
28,8:4
28,9:4
28,13:8
28,19:8
28,20:8
28,21:8
28,22:4
28,24:4
28,26:4
28,27:4

<end>

<optimal SALBP-1 value>
4


<rand seed>
467321153

